15 40
25
2 11 13 26
3 2 8 10
7 10 4 0
4 8 4 32
5 9 8 26
2 7 0 30
1 4 4 16
1 6 7 26
5 4 0 12
3 8 4 23
3 1 4 31
5 5 8 35
1 3 4 20
4 12 0 0
2 6 0 16
4 2 4 10
4 11 5 12
2 10 2 30
2 3 0 37
2 11 9 12
4 3 7 23
4 26 11 0
4 8 0 22
2 3 13 37
2 6 2 16
